data;
param f := 2;
param N := 7;
param M := 5;
param tMax := 30;
# 
# T1 - NULL
# T2 - SEND PREPREQ
# T3 - RECEIVED PREPREQ
# T4 - SEND PREPRESPONSE
# T5 - RECEIVED M PREPRESPONSE
# T6 - SEND COMMIT
# T7 - RECEIVED M COMMIT - RELAYED BLOCK
